Results/Experiment 1 Results/Existing Benchmark/RES_40/i-40-75-14.txt
solutions: 2 nodes: 3  modelTime: 135  solveTime: 17  totalTime: 159  modelSize: 7857  readTime: 7 matchingSize: 20
