Results/Experiment 2 Results/Existing Benchmark/i-40-75-14.lp
clingo version 5.4.0
Reading from tempSRTISolver.lp ...
Solving...
Answer: 1
matched(3,2) matched(2,3) matched(28,5) matched(16,6) matched(40,7) matched(18,8) matched(1,9) matched(32,10) matched(35,11) matched(4,13) matched(36,14) matched(19,15) matched(6,16) matched(23,17) matched(8,18) matched(15,19) matched(21,20) matched(20,21) matched(17,23) matched(37,24) matched(22,25) matched(31,26) matched(33,27) matched(5,28) matched(12,30) matched(10,32) matched(11,35) matched(24,37) matched(29,38) matched(34,39) matched(7,40) matched(9,1) matched(13,4) matched(30,12) matched(25,22) matched(26,31) matched(27,33) matched(39,34) matched(14,36) matched(38,29)
Optimization: 220
Answer: 2
matched(22,2) matched(9,3) matched(28,5) matched(16,6) matched(40,7) matched(1,8) matched(3,9) matched(32,10) matched(35,11) matched(4,13) matched(36,14) matched(19,15) matched(6,16) matched(23,17) matched(24,18) matched(15,19) matched(21,20) matched(20,21) matched(17,23) matched(18,24) matched(31,25) matched(39,26) matched(33,27) matched(5,28) matched(12,30) matched(10,32) matched(11,35) matched(34,37) matched(29,38) matched(26,39) matched(7,40) matched(8,1) matched(13,4) matched(30,12) matched(2,22) matched(25,31) matched(27,33) matched(37,34) matched(14,36) matched(38,29)
Optimization: 216
OPTIMUM FOUND

Models       : 2
  Optimum    : yes
Optimization : 216
Calls        : 1
Time         : 0.524s (Solving: 0.03s 1st Model: 0.01s Unsat: 0.02s)
CPU Time     : 0.521s
